% Auto-generated by scripts/generate_dzn.py
% problem_type   = regex
% instance       = regex_99
% source_json    = instances_json/2_high_blowup/regex_99.json
% blowup         = 15.6
% representation = NFA

mode = 1;

var_count = 18;
n_constraints = 2;
Q = 13;
S = 2;
q0 = [1, 1];
F = [{13}, {12}];
weights = [1, 1, 4, 10, 7, 3, 1, 3, 8, 7, 1, 2, 4, 7, 7, 10, 3, 9];
d_dfa = array3d(1..2, 1..13, 1..2, [
  % k = 1
    0, 0,
    0, 0,
    0, 0,
    0, 0,
    0, 0,
    0, 0,
    0, 0,
    0, 0,
    0, 0,
    0, 0,
    0, 0,
    0, 0,
    0, 0,

  % k = 2
    0, 0,
    0, 0,
    0, 0,
    0, 0,
    0, 0,
    0, 0,
    0, 0,
    0, 0,
    0, 0,
    0, 0,
    0, 0,
    0, 0,
    0, 0
]);
d_nfa = array3d(1..2, 1..13, 1..2, [
  % k = 1
    {1}, {1, 2},
    {3}, {},
    {4}, {4},
    {5}, {5},
    {6}, {6},
    {7}, {7},
    {8}, {8},
    {9}, {9},
    {10}, {10},
    {11}, {11},
    {12}, {12},
    {13}, {13},
    {}, {},

  % k = 2
    {1}, {2},
    {2}, {3},
    {3}, {4},
    {4}, {5},
    {5}, {6},
    {6}, {7},
    {7}, {8},
    {8}, {9},
    {9}, {10},
    {10}, {11},
    {11}, {12},
    {12}, {},
    {}, {}
]);
